db/data/177546094259863101018189155921126710557.z3.out
sat
-------------------
416.916259426
